
Gurobi 11.0.3 (linux64) logging started Fri Nov 22 14:23:59 2024

Set parameter LogFile to value "/home/yihong/Coding/OR_SUC/SUC_results_bigM100000_thread4/case24_ieee_rts_theta0.5_epsilon0.025_gurobi_seed910000_num_gen100_N_WDR100_load_scaling_factor1_proposed_T8quadra_cost.txt"
Set parameter TimeLimit to value 3600
Gurobi Optimizer version 11.0.3 build v11.0.3rc0 (linux64 - "Ubuntu 20.04.6 LTS")

CPU model: AMD EPYC 7532 32-Core Processor, instruction set [SSE2|AVX|AVX2]
Thread count: 64 physical cores, 128 logical processors, using up to 4 threads

Optimize a model with 16982 rows, 10021 columns and 235066 nonzeros
Model fingerprint: 0x59db0fa5
Model has 800 quadratic constraints
Variable types: 9221 continuous, 800 integer (800 binary)
Coefficient statistics:
  Matrix range     [3e-04, 3e+03]
  QMatrix range    [2e-03, 8e-03]
  QLMatrix range   [4e-01, 6e+01]
  Objective range  [1e+00, 1e+00]
  Bounds range     [1e+00, 1e+00]
  RHS range        [1e+00, 9e+03]
Presolve removed 13866 rows and 4470 columns
Presolve time: 0.07s
Presolved: 3116 rows, 5551 columns, 21961 nonzeros
Presolved model has 800 quadratic constraint(s)
Variable types: 4751 continuous, 800 integer (800 binary)

Root relaxation: objective 2.497735e+04, 2517 iterations, 0.04 seconds (0.04 work units)

    Nodes    |    Current Node    |     Objective Bounds      |     Work
 Expl Unexpl |  Obj  Depth IntInf | Incumbent    BestBd   Gap | It/Node Time

     0     0 24977.3496    0    8          - 24977.3496      -     -    0s
H    0     0                    291525.14850 24977.3496  91.4%     -    0s
     0     0 167962.672    0   16 291525.148 167962.672  42.4%     -    0s
     0     0 258850.812    0    8 291525.148 258850.812  11.2%     -    0s
     0     0 258863.233    0    8 291525.148 258863.233  11.2%     -    0s
     0     0 258863.378    0    8 291525.148 258863.378  11.2%     -    0s
     0     0 258863.394    0    8 291525.148 258863.394  11.2%     -    0s
     0     2 258863.394    0    8 291525.148 258863.394  11.2%     -    0s
H   58    58                    259032.29611 258869.432  0.06%  22.3    1s
*   58    58              14    259032.29611 258869.432  0.06%  23.4    1s

Cutting planes:
  Implied bound: 22
  MIR: 1

Explored 60 nodes (7493 simplex iterations) in 1.20 seconds (1.38 work units)
Thread count was 4 (of 128 available processors)

Solution count 2: 259032 291525 

Optimal solution found (tolerance 1.00e-03)
Warning: max constraint violation (7.0245e-09) exceeds tolerance
Best objective 2.590322961141e+05, best bound 2.588694323509e+05, gap 0.0629%
